>compound Kaempferol
>formula C15H10O6
>parentmass 287.055541992188
>ionization [M+H]+

>collision 35
106.7356185913086 3323.066650390625
107.30970001220703 2923.055908203125
111.00737762451172 20293.875
121.02815246582031 78202.015625
124.27025604248047 3389.218994140625
129.06948852539062 5952.32763671875
133.02816772460938 61508.11328125
137.0232391357422 26370.72265625
141.0693817138672 5162.68115234375
145.0645751953125 25813.6328125
147.04405212402344 28809.833984375
149.03018188476562 3183.4462890625
153.01806640625 158751.671875
157.06448364257812 25714.3671875
165.0181427001953 283472.75
169.064208984375 13881.2939453125
171.0439453125 17529.884765625
175.0391082763672 8554.6884765625
177.0560302734375 5183.33447265625
185.0596923828125 36724.61328125
189.05442810058594 19097.65234375
192.79994201660156 3556.005859375
194.02142333984375 3868.97509765625
197.05941772460938 57878.3671875
199.0386199951172 10546.1953125
203.07052612304688 14424.802734375
205.0574493408203 3300.708251953125
213.05465698242188 271126.90625
214.05673217773438 4562.7578125
216.89605712890625 3333.070556640625
217.05242919921875 4210.34716796875
225.0517578125 5728.8046875
227.02500915527344 4110.40380859375
228.64231872558594 3576.346923828125
231.06527709960938 89544.140625
239.75856018066406 3758.48193359375
241.04953002929688 300909.40625
242.05264282226562 5722.47265625
243.06527709960938 17434.478515625
245.04454040527344 10681.177734375
258.0524597167969 133904.75
259.05999755859375 55729.3046875
269.04486083984375 69443.34375
286.1376647949219 4506.974609375
287.05517578125 6201999.5
287.5962829589844 16860.236328125
288.0579528808594 2403216.75
288.2745666503906 9253.0888671875
288.5991516113281 3900.516845703125
288.6138916015625 3774.447509765625

>collision 45
75.16407012939453 5862.62744140625
84.38707733154297 5833.80029296875
85.8166732788086 5124.8125
97.10856628417969 5324.1708984375
103.05489349365234 11151.9111328125
105.03298950195312 35287.84375
107.0490493774414 12242.634765625
111.00719451904297 68004.9296875
121.02803039550781 279152.0625
127.03834533691406 11815.0517578125
129.06939697265625 24813.763671875
133.02801513671875 216227.9375
134.91017150878906 5463.04052734375
135.04315185546875 12610.6826171875
137.02304077148438 103529.8828125
141.06967163085938 20003.2890625
145.0644073486328 110495.9921875
147.0437774658203 116611.6796875
147.16539001464844 4851.3505859375
153.01785278320312 558196.4375
157.06448364257812 116421.984375
161.0232391357422 14390.478515625
164.8577880859375 7537.93701171875
165.0178985595703 1008413.25
165.26007080078125 5787.65185546875
166.02386474609375 7853.51171875
169.06446838378906 58121.4453125
171.043701171875 74785.5234375
173.0225830078125 8006.8671875
175.0386962890625 41124.76171875
177.0541534423828 12100.07421875
183.0282745361328 23152.142578125
185.05929565429688 171599.390625
189.05419921875 57233.25390625
194.02081298828125 10694.3671875
197.05950927734375 202242.3125
199.03872680664062 43934.58984375
201.05470275878906 12779.0166015625
203.03353881835938 61072.515625
213.0543212890625 1057829.375
217.04881286621094 12870.7080078125
220.62567138671875 6766.685546875
223.04090881347656 6610.767578125
223.90846252441406 5078.06494140625
225.05406188964844 24530.01953125
229.0498809814453 9803.9443359375
231.0650177001953 315526.15625
240.52606201171875 5938.482421875
241.0491943359375 1073994.625
241.4715118408203 5870.46923828125
243.0650634765625 63484.36328125
244.177734375 6667.4501953125
245.04356384277344 36870.875
258.052001953125 491532.5625
259.05987548828125 201354.359375
269.04443359375 212823.046875
286.37384033203125 7275.07275390625
286.5040283203125 35039.58984375
286.6979064941406 13027.943359375
286.8424987792969 39919.12890625
287.0546875 6126017.5
287.2655029296875 23661.69140625
287.41571044921875 12146.8017578125
287.6086730957031 21860.509765625
288.0577697753906 1239180.875

>collision 55
78.28400421142578 2237.61083984375
80.03608703613281 2361.09228515625
86.8105697631836 2584.223876953125
88.0823745727539 2695.275146484375
88.7444839477539 2141.23583984375
92.3319091796875 2295.41455078125
93.61019897460938 2760.30615234375
94.39579010009766 2070.4248046875
100.85655975341797 2284.5498046875
103.05396270751953 5156.02197265625
105.03318786621094 11623.685546875
107.04961395263672 4057.009033203125
111.00725555419922 33412.8828125
118.11579132080078 2558.39501953125
121.02809143066406 135011.46875
127.03856658935547 6869.2177734375
129.069580078125 12116.8046875
133.0281524658203 102234.875
135.04359436035156 7085.1708984375
137.02308654785156 49160.10546875
139.31362915039062 2583.138427734375
141.0693817138672 8880.013671875
145.06454467773438 49472.9140625
147.04373168945312 48220.546875
153.0179901123047 253156.453125
154.01832580566406 2304.216796875
157.06466674804688 45482.8671875
161.02273559570312 6928.19970703125
165.01803588867188 456251.875
169.06446838378906 23873.548828125
169.48423767089844 2550.3251953125
171.0438232421875 32733.7109375
173.05845642089844 4096.6025390625
175.03892517089844 17203.615234375
177.05482482910156 6441.96923828125
183.02880859375 12170.8955078125
185.0594940185547 72154.71875
188.44778442382812 3529.50634765625
189.05450439453125 28666.0234375
194.02099609375 5441.3330078125
197.0596466064453 91461.34375
199.0389404296875 20316.283203125
201.05416870117188 5974.87841796875
203.07041931152344 29265.44140625
212.92404174804688 3205.712646484375
213.0544891357422 460894.4375
214.05770874023438 10781.6357421875
215.0684051513672 3037.59326171875
217.0482635498047 5357.552734375
225.05499267578125 11945.5625
227.0341796875 2859.783203125
229.04908752441406 3706.021484375
231.06521606445312 154922.234375
232.0685577392578 3947.25244140625
240.89193725585938 4413.2353515625
241.04937744140625 494903.15625
242.0529327392578 11868.4091796875
243.0652313232422 27882.53515625
245.044189453125 18427.037109375
258.05230712890625 231805.34375
259.0596618652344 97257.875
269.0445556640625 106831.0078125
270.0489501953125 3367.868408203125
286.6963806152344 2961.317626953125
286.84942626953125 5375.8876953125
287.0551452636719 980746.0
287.2678527832031 3718.1728515625
287.70599365234375 5349.69287109375
287.8500671386719 11213.0419921875
288.0580749511719 1990858.0
288.269775390625 7959.69677734375
288.60986328125 4350.59228515625


>ms1peaks
287.055541992188 2.9941396E7
288.058349609375 4966443.0
289.060211181641 726323.1875
290.062744140625 74114.2734375
